p cnf 15 41
1 0
-2 -12 0
-2 -13 0
-2 -14 0
-2 -15 0
-3 -12 0
-3 -13 0
-3 -14 0
-3 15 0
-4 -12 0
-4 -13 0
-4 14 0
-4 -15 0
-5 -12 0
-5 -13 0
-5 14 0
-5 15 0
-6 -12 0
-6 13 0
-6 -14 0
-6 -15 0
-7 -12 0
-7 13 0
-7 -14 0
-7 15 0
-8 -12 0
-8 13 0
-8 14 0
-8 -15 0
-9 -12 0
-9 13 0
-9 14 0
-9 15 0
-10 12 0
-10 -13 0
-10 -14 0
-10 -15 0
-11 12 0
-11 -13 0
-11 -14 0
-11 15 0
